problems/csplib-prob007/AllIntervalSeries-models/compact/O2/lingeling/model-09-solution000001.eprime-solution
language ESSENCE' 1.0

letting s_Function1D be [1, 8, 0, 6, 4, 5, 2, 7, 3; int(1..9)]
letting v_Function1D be [7, 8, 6, 2, 1, 3, 5, 4; int(1..8)]
