problems/csplib-prob007/AllIntervalSeries-models/compact/O2/lingeling/model-09-solution000001.solution
language Essence 1.3

letting s be function(1 --> 1, 2 --> 8, 3 --> 0, 4 --> 6, 5 --> 4, 6 --> 5, 7 --> 2, 8 --> 7, 9 --> 3)
letting v be function(1 --> 7, 2 --> 8, 3 --> 6, 4 --> 2, 5 --> 1, 6 --> 3, 7 --> 5, 8 --> 4)
